000 000 000 000 000 000 000 000 -99 -99 -99 -99 -99 000 000 000 -99 -99 000 000 000 000 000 000 -99 -99 -99 -99 -99 -99 -99
000 000 000 000 000 000 000 000 -99 -99 -99 -99 -99 000 000 000 -99 -99 -99 000 000 000 000 000 -99 -99 -99 -99 -99 -99 -99
000 000 000 000 000 000 000 000 000 -99 -99 000 000 -99 000 000 000 -99 -99 000 000 000 000 000 -99 -99 -99 -99 -99 -99 -99
-99 000 000 000 000 000 000 -99 000 000 -99 000 000 -99 000 000 -99 -99 -99 000 000 000 000 000 -99 -99 -99 -99 -99 -99 -99
000 000 000 000 000 000 000 000 000 000 -99 000 000 000 000 000 -99 -99 -99 -99 000 000 000 -99 -99 -99 -99 -99 -99 -99 -99
000 000 000 000 000 000 000 000 000 000 -99 -99 000 -99 000 000 -99 -99 -99 -99 000 -99 -99 -99 -99 -99 -99 -99 -99 -99 -99
000 000 000 000 000 000 000 000 000 000 000 -99 000 000 000 000 -99 -99 -99 -99 -99 -99 -99 -99 -99 -99 -99 -99 -99 -99 -99
000 000 000 000 000 000 000 000 000 000 000 -99 -99 -99 000 000 000 000 -99 -99 000 -99 -99 -99 -99 -99 -99 -99 -99 -99 -99
000 000 000 000 000 000 000 000 000 000 000 000 -99 -99 -99 000 000 000 -99 -99 000 -99 -99 -99 -99 -99 -99 -99 -99 -99 -99
000 000 000 000 000 000 -99 000 000 000 000 000 000 -99 -99 -99 000 000 000 -99 000 000 -99 -99 -99 -99 -99 -99 -99 -99 -99
000 000 000 000 000 000 000 000 000 000 000 000 000 -99 -99 000 000 000 000 -99 000 000 -99 -99 000 -99 -99 -99 -99 -99 -99
000 000 000 000 000 000 000 000 000 000 000 000 000 000 -99 000 000 000 000 000 -99 000 -99 -99 000 000 -99 -99 -99 -99 -99
000 000 000 000 000 000 000 000 000 000 000 000 000 -99 -99 000 000 000 000 000 000 -99 -99 -99 000 000 000 -99 000 -99 -99
000 000 000 000 000 000 000 000 000 000 000 -99 000 000 000 000 000 000 000 000 -99 000 -99 -99 -99 000 000 -99 000 -99 -99
000 -99 000 000 000 000 000 000 -99 000 000 -99 -99 000 000 000 000 000 000 000 000 000 -99 -99 000 000 000 -99 000 -99 -99
-99 -99 -99 -99 000 000 000 000 000 -99 -99 -99 -99 000 000 000 000 000 000 000 000 000 -99 000 000 000 000 000 000 000 -99
000 -99 -99 -99 -99 000 000 000 000 -99 -99 -99 -99 -99 000 000 000 000 000 000 000 000 000 000 000 000 000 -99 000 000 -99
000 000 000 -99 -99 -99 000 000 000 -99 -99 -99 000 -99 000 000 000 000 000 000 000 -99 -99 -99 000 000 000 -99 -99 000 -99
000 000 000 -99 -99 -99 -99 -99 000 000 000 000 000 -99 000 000 -99 000 000 000 000 -99 -99 -99 -99 -99 -99 -99 -99 -99 000
000 -99 -99 -99 -99 -99 -99 -99 -99 000 000 000 000 000 000 000 000 000 000 000 000 000 -99 -99 -99 -99 -99 -99 -99 -99 -99
000 000 000 -99 -99 -99 -99 -99 -99 000 000 000 000 000 -99 000 000 -99 -99 000 000 000 -99 -99 -99 -99 -99 -99 -99 -99 -99
000 000 000 -99 -99 -99 -99 -99 -99 000 000 000 000 000 000 000 000 -99 -99 000 000 000 -99 -99 -99 -99 -99 -99 -99 -99 -99
000 000 -99 -99 -99 -99 -99 -99 -99 000 000 000 000 000 000 000 000 -99 -99 -99 000 000 000 -99 -99 -99 -99 -99 -99 -99 -99
000 000 000 -99 -99 -99 -99 -99 000 000 -99 000 000 000 000 000 000 000 -99 000 000 000 000 -99 -99 -99 -99 -99 -99 -99 -99
000 000 000 -99 000 -99 -99 -99 000 000 -99 000 000 -99 000 000 000 000 000 000 000 000 000 -99 -99 -99 -99 -99 -99 -99 -99
000 000 000 -99 000 -99 -99 000 000 000 000 -99 000 000 000 000 000 000 000 000 000 000 000 -99 -99 -99 -99 -99 -99 -99 -99
000 000 000 000 000 000 000 000 000 000 000 -99 000 000 000 -99 000 000 000 000 000 000 -99 -99 -99 -99 -99 -99 -99 -99 -99
-99 000 000 000 000 -99 000 000 000 000 000 -99 000 000 000 -99 000 000 000 000 000 000 -99 -99 -99 -99 -99 -99 -99 -99 -99
000 000 000 000 000 -99 -99 000 000 000 000 -99 000 000 000 -99 000 000 000 000 000 000 -99 -99 -99 -99 -99 -99 -99 -99 -99
000 000 000 000 000 -99 -99 000 -99 000 000 -99 -99 000 000 000 000 000 000 000 000 000 -99 -99 -99 -99 -99 -99 -99 -99 -99
000 000 000 000 -99 -99 -99 -99 000 000 000 -99 -99 -99 -99 -99 -99 000 000 000 000 000 -99 -99 000 000 -99 -99 -99 -99 000
000 000 000 000 000 -99 -99 -99 000 000 000 -99 000 000 -99 -99 -99 000 000 000 000 -99 -99 000 000 000 -99 -99 -99 -99 000
000 000 000 000 000 -99 -99 000 000 000 000 -99 000 000 -99 -99 -99 -99 000 000 000 -99 000 000 000 000 -99 000 001 002 001
000 000 000 000 -99 000 000 000 000 000 -99 -99 000 000 -99 -99 -99 -99 000 000 -99 000 000 000 000 000 001 001 001 002 001
000 000 000 000 000 000 000 000 000 000 -99 -99 000 000 000 -99 -99 -99 000 000 000 000 001 001 000 000 001 001 001 002 002
000 000 000 000 000 000 000 000 000 -99 -99 000 000 000 000 000 -99 -99 000 000 000 000 001 001 001 000 000 001 002 001 003
000 000 000 000 000 000 000 000 000 000 000 000 000 000 000 000 000 -99 000 000 000 000 001 002 001 001 000 001 001 002 002
000 000 000 000 000 000 000 000 000 000 000 000 000 000 000 000 000 -99 -99 000 000 000 000 001 002 001 001 002 002 002 003
000 000 000 000 000 000 000 000 000 000 000 000 000 000 000 000 000 000 -99 000 000 000 002 002 001 001 001 002 002 002 004
000 000 000 000 000 000 000 000 000 000 000 000 000 000 000 000 000 000 -99 000 000 000 001 002 002 001 002 002 002 003 005
000 000 000 000 000 000 000 000 000 000 000 000 000 000 000 000 000 000 000 000 000 000 001 001 002 002 003 003 003 004 005
000 000 000 000 000 000 000 000 001 000 000 000 000 000 000 000 000 000 000 000 000 000 000 000 002 001 002 003 004 004 006
000 000 000 000 000 000 000 000 000 000 000 000 000 000 000 000 000 000 000 000 000 000 000 000 000 000 001 003 005 004 005
000 000 000 000 000 000 000 000 000 000 000 000 000 000 000 000 000 000 000 000 000 000 000 000 000 000 002 004 004 004 004
000 000 000 000 000 000 000 000 000 000 000 000 000 000 000 000 000 000 000 000 000 -99 -99 000 000 000 002 005 005 004 004
000 000 000 000 000 000 000 000 000 000 000 000 000 000 000 000 000 000 000 000 000 -99 000 000 000 000 002 006 006 005 004
000 -99 000 000 000 000 000 000 000 000 000 000 000 000 000 000 000 000 000 000 000 000 000 000 000 000 002 006 002 004 006
-99 -99 -99 000 000 000 000 000 000 000 000 000 000 000 000 000 -99 000 000 000 000 -99 000 000 000 001 002 001 003 003 005
-99 -99 -99 -99 000 000 000 000 000 000 000 001 001 000 000 000 -99 000 000 -99 -99 -99 000 000 000 000 000 001 003 002 005
-99 -99 -99 -99 000 000 000 000 000 000 001 001 000 000 000 000 000 000 000 -99 -99 000 -99 000 000 000 001 002 001 001 004
-99 -99 -99 -99 -99 000 000 001 001 000 003 001 000 000 000 000 000 000 -99 -99 -99 -99 -99 000 000 000 001 001 001 001 002
-99 -99 -99 -99 -99 000 000 001 001 002 002 002 001 001 000 000 000 000 -99 -99 000 -99 -99 000 000 000 001 001 001 001 001
-99 -99 -99 -99 -99 000 000 002 003 005 002 001 001 001 000 000 000 000 000 -99 000 -99 -99 000 000 000 001 001 001 001 001
-99 -99 -99 -99 000 000 001 004 003 003 002 001 002 001 001 000 000 000 000 000 -99 -99 -99 000 000 000 001 001 002 001 001
-99 -99 -99 -99 000 000 001 002 003 003 003 002 002 001 002 001 000 000 000 000 -99 -99 000 000 000 000 001 001 002 001 001
